Version identifier: 20.1.0.0 | 2020-11-10 | 9bedb6d68
Tried aggregator 2 times.
MIP Presolve eliminated 948 rows and 462 columns.
MIP Presolve modified 2308 coefficients.
Aggregator did 113 substitutions.
Reduced MIP has 1348 rows, 1090 columns, and 4424 nonzeros.
Reduced MIP has 212 binaries, 878 generals, 0 SOSs, and 0 indicators.
Presolve time = 0.02 sec. (5.39 ticks)
Found incumbent of value 1750.000000 after 0.03 sec. (10.88 ticks)
Probing fixed 26 vars, tightened 263 bounds.
Probing time = 0.00 sec. (0.83 ticks)
Tried aggregator 2 times.
Detecting symmetries...
MIP Presolve eliminated 507 rows and 30 columns.
MIP Presolve modified 111 coefficients.
Aggregator did 4 substitutions.
Reduced MIP has 837 rows, 1056 columns, and 2735 nonzeros.
Reduced MIP has 290 binaries, 766 generals, 0 SOSs, and 0 indicators.
Presolve time = 0.01 sec. (3.67 ticks)
Probing time = 0.00 sec. (0.27 ticks)
Clique table members: 43.
MIP emphasis: balance optimality and feasibility.
MIP search method: dynamic search.
Parallel mode: deterministic, using up to 24 threads.
Root relaxation solution time = 0.01 sec. (2.52 ticks)

        Nodes                                         Cuts/
   Node  Left     Objective  IInf  Best Integer    Best Bound    ItCnt     Gap

*     0+    0                         1750.0000        0.0000           100.00%
*     0+    0                           60.0000        0.0000           100.00%
      0     0        0.0000    59       60.0000        0.0000      287  100.00%
      0     0        0.0000    91       60.0000      Cuts: 71      393  100.00%
      0     0        0.0000    68       60.0000      Cuts: 92      472  100.00%
      0     0        0.0000   102       60.0000      Cuts: 60      558  100.00%
*     0+    0                           18.0000        0.0000           100.00%
*     0+    0                           12.0000        0.0000           100.00%
      0     0        cutoff             12.0000       12.0000      558    0.00%
Elapsed time = 0.56 sec. (102.75 ticks, tree = 0.01 MB, solutions = 4)

Implied bound cuts applied:  32
Mixed integer rounding cuts applied:  8
Zero-half cuts applied:  56
Lift and project cuts applied:  6
Gomory fractional cuts applied:  26

Root node processing (before b&c):
  Real time             =    0.56 sec. (102.85 ticks)
Parallel b&c, 24 threads:
  Real time             =    0.00 sec. (0.00 ticks)
  Sync time (average)   =    0.00 sec.
  Wait time (average)   =    0.00 sec.
                          ------------
Total (root+branch&cut) =    0.56 sec. (102.85 ticks)

Solution status = Optimal
Solution LB = 12
Solution UB = 12
Runtime = 0.568075 seconds
	Command being timed: "/home/min/git_repos/CS598MEBProject/CNT-ILP/build/cnt -s 2 ./output/k8_n15/simC_c1_k8_n15_u2_s2_del04.input-right.cnp"
	User time (seconds): 7.73
	System time (seconds): 0.08
	Percent of CPU this job got: 1323%
	Elapsed (wall clock) time (h:mm:ss or m:ss): 0:00.59
	Average shared text size (kbytes): 0
	Average unshared data size (kbytes): 0
	Average stack size (kbytes): 0
	Average total size (kbytes): 0
	Maximum resident set size (kbytes): 99076
	Average resident set size (kbytes): 0
	Major (requiring I/O) page faults: 0
	Minor (reclaiming a frame) page faults: 21921
	Voluntary context switches: 4289
	Involuntary context switches: 1130
	Swaps: 0
	File system inputs: 0
	File system outputs: 16
	Socket messages sent: 0
	Socket messages received: 0
	Signals delivered: 0
	Page size (bytes): 4096
	Exit status: 0
